20171129 124267.80 123247.36
20171122 124267.80 123247.36
20170720 124319.77 123247.36
20161107 124319.77 123138.55
20161024 124319.77 122759.42
20160819 124356.82 122759.42
20151231 124257.67 122759.42
20151012 124257.67 122759.42
